CPXPARAM_Read_DataCheck                          1
CPXPARAM_TimeLimit                               1800
Found incumbent of value 404.000000 after 0.00 sec. (0.06 ticks)
Tried aggregator 1 time.
MIP Presolve eliminated 11 rows and 1 columns.
MIP Presolve modified 5 coefficients.
Reduced MIP has 990 rows, 500 columns, and 1985 nonzeros.
Reduced MIP has 500 binaries, 0 generals, 0 SOSs, and 0 indicators.
Presolve time = 0.00 sec. (1.30 ticks)
Probing time = 0.00 sec. (0.17 ticks)
Tried aggregator 1 time.
Reduced MIP has 990 rows, 500 columns, and 1985 nonzeros.
Reduced MIP has 500 binaries, 0 generals, 0 SOSs, and 0 indicators.
Presolve time = 0.01 sec. (1.49 ticks)
Probing time = 0.00 sec. (0.17 ticks)
Clique table members: 990.
MIP emphasis: balance optimality and feasibility.
MIP search method: dynamic search.
Parallel mode: deterministic, using up to 4 threads.
Root relaxation solution time = 0.01 sec. (5.57 ticks)

        Nodes                                         Cuts/
   Node  Left     Objective  IInf  Best Integer    Best Bound    ItCnt     Gap

*     0+    0                          404.0000        0.0000           100.00%
*     0+    0                          304.0000        0.0000           100.00%
      0     0      252.5000   491      304.0000      252.5000      909   16.94%
      0     0      258.1000   489      304.0000     Cuts: 195     1185   15.10%
*     0+    0                          299.0000      258.1000            13.68%
*     0+    0                          282.0000      258.1000             8.48%
      0     0      261.6471   496      282.0000     Cuts: 150     1536    7.22%
      0     0      263.2805   498      282.0000 ZeroHalf: 117     1770    6.64%
*     0+    0                          280.0000      263.2805             5.97%
      0     0      264.6187   498      280.0000  ZeroHalf: 26     2003    5.49%
      0     0      265.2070   497      280.0000  ZeroHalf: 29     2213    5.28%
      0     0      266.0443   498      280.0000  ZeroHalf: 23     2420    4.98%
      0     0      266.3311   496      280.0000  ZeroHalf: 23     2560    4.88%
      0     0      266.6041   497      280.0000  ZeroHalf: 17     2724    4.78%
      0     0      266.8486   497      280.0000  ZeroHalf: 19     2882    4.70%
      0     0      267.1574   499      280.0000  ZeroHalf: 15     3087    4.59%
      0     0      267.3733   482      280.0000  ZeroHalf: 16     3239    4.51%
      0     0      267.4418   498      280.0000   ZeroHalf: 8     3337    4.49%
      0     0      267.7194   484      280.0000   ZeroHalf: 9     3489    4.39%
      0     0      267.9719   482      280.0000  ZeroHalf: 10     3640    4.30%
      0     0      268.1450   491      280.0000   ZeroHalf: 6     3756    4.23%
      0     0      268.2067   492      280.0000   ZeroHalf: 9     3860    4.21%
      0     0      268.2911   491      280.0000   ZeroHalf: 6     3944    4.18%
      0     0      268.4299   492      280.0000  ZeroHalf: 11     4082    4.13%
      0     0      268.5518   491      280.0000  ZeroHalf: 13     4172    4.09%
      0     0      268.6885   492      280.0000   ZeroHalf: 5     4289    4.04%
      0     0      268.6970   492      280.0000   ZeroHalf: 1     4324    4.04%
      0     0      268.7038   490      280.0000   ZeroHalf: 5     4356    4.03%
*     0+    0                          278.0000      268.7038             3.34%
      0     2      268.7038   490      278.0000      268.7038     4356    3.34%
Elapsed time = 4.13 sec. (797.95 ticks, tree = 0.02 MB, solutions = 6)
     45    43      271.6267   445      278.0000      269.0755    14838    3.21%
    135    98      273.7725   446      278.0000      269.7347    30936    2.97%
*   197+  132                          277.0000      269.9586             2.54%
    226   144      272.7824   466      277.0000      270.1643    43323    2.47%
    304   180      271.6525   458      277.0000      270.3789    57560    2.39%
    391   242      273.5416   417      277.0000      270.8117    69173    2.23%
    477   298      273.8898   445      277.0000      270.8117    80840    2.23%
*   563+  361                          276.0000      271.0662             1.79%
    584   370      274.2880   432      276.0000      271.0662    97899    1.79%
    667   362      273.1646   439      276.0000      271.2680   114735    1.71%
    781   431      273.7893   431      276.0000      271.4244   130277    1.66%
   1346   707      274.6764   420      276.0000      272.2347   183854    1.36%
Elapsed time = 11.54 sec. (3927.35 ticks, tree = 2.00 MB, solutions = 8)
   1930   987      274.9342   401      276.0000      272.7475   244206    1.18%
   2536  1125        cutoff            276.0000      273.1565   293069    1.03%
   3132  1146      274.8445   421      276.0000      273.5324   342229    0.89%
   3840  1104      274.9057   368      276.0000      273.8490   389993    0.78%
   4601   770        cutoff            276.0000      274.2290   439628    0.64%

Zero-half cuts applied:  231
Lift and project cuts applied:  1
Gomory fractional cuts applied:  4

Root node processing (before b&c):
  Real time             =    4.12 sec. (795.01 ticks)
Parallel b&c, 4 threads:
  Real time             =   20.20 sec. (8559.30 ticks)
  Sync time (average)   =    0.49 sec.
  Wait time (average)   =    0.00 sec.
                          ------------
Total (root+branch&cut) =   24.32 sec. (9354.31 ticks)
276.0
0.0